(set-info :smt-lib-version 2.6)
(set-logic QF_S)
(set-info :source |
Generated by: Shaoke Cui
Generated on: 2025-04-10
Application: Using String Solvers to solve string matching problems
Target solver: Z3, Z3alpha, Z3-noodler
Benchmarks for string matching problem with wildcards, which needs to determine whether two strings containing two wildcards can match.
Use re.allchar and (re.* re.allchar) to represent wildcards.
Determine whether the two strings match by judging whether the result of re.inter is re.none.
|)
(set-info :license "https://creativecommons.org/licenses/by/4.0/")
(set-info :category "crafted")
(set-info :status unknown)
(assert (= re.none (re.inter  (re.++ (str.to_re "zzho") (re.* re.allchar) (str.to_re "hxekiqfnbblnxpctbzqjivba") re.allchar (str.to_re "tvfpuxv") re.allchar (str.to_re "hpljkgzsy") re.allchar (str.to_re "msoggjbazwn") re.allchar (str.to_re "ttijucchlwktnzwxruyhunmkdm") re.allchar (str.to_re "vbldjgozvjavypfsoqjdjvexdgeehvqnc") (re.* re.allchar) (str.to_re "rykdj") (re.* re.allchar) (str.to_re "ewxzklaoxekoqqxhncs") (re.* re.allchar) (str.to_re "qoxqavfxeklcazdoiouktwvhx") re.allchar (str.to_re "vaynlxn") re.allchar (re.* re.allchar) (str.to_re "rjw") re.allchar (str.to_re "f") re.allchar (str.to_re "cyaymsonjsjsf") (re.* re.allchar) (str.to_re "icvvh") re.allchar (str.to_re "scpqggmcifemunmzkhwkvgo") (re.* re.allchar) (str.to_re "nmaep") (re.* re.allchar) (str.to_re "dicirpyc") (re.* re.allchar) (str.to_re "ghm") (re.* re.allchar) (str.to_re "fnubwyyxmlzgabnmewpittjgapdwrqeqresc") (re.* re.allchar) (str.to_re "bvkjjmmchnevy") re.allchar (str.to_re "tfklxsvztcopclbtit") re.allchar (str.to_re "ostfdtsafnjuseuvdozeuegqvev") (re.* re.allchar) (str.to_re "fzmhtdqfjulxdkotz") re.allchar re.allchar (str.to_re "ymjjklklvwifovif") re.allchar re.allchar (re.* re.allchar) (str.to_re "dgxhfcalbaotqwldfjni") (re.* re.allchar) (str.to_re "swqccinxrnhjdnwghsxueto") (re.* re.allchar) (str.to_re "dkzsyucecayrfojmecmvwdpmes") (re.* re.allchar) (str.to_re "qf") (re.* re.allchar) (str.to_re "sperkysh") re.allchar (str.to_re "iwcbaxowubdqzpmzqqpuzhnkmjzpqvflsgzasqkf") (re.* re.allchar) (str.to_re "shb") re.allchar (str.to_re "omwuw") (re.* re.allchar) (str.to_re "o") (re.* re.allchar) (str.to_re "ve") re.allchar (str.to_re "mcfrvlw") (re.* re.allchar) (str.to_re "sorjf") (re.* re.allchar) (str.to_re "pbkdtod") re.allchar (str.to_re "xixzcpqkjc") re.allchar (str.to_re "mitcsnrphgemcnmxiyw") re.allchar (re.* re.allchar) (str.to_re "cfeuktanzsfmtk") (re.* re.allchar) (str.to_re "cmolklvxcvkceeyvgyozkcjyvd") re.allchar (str.to_re "kkqf") re.allchar (str.to_re "jxeonmjbgbnkqri") re.allchar (str.to_re "ubgixbqozbgnek") re.allchar re.allchar (str.to_re "vpw") (re.* re.allchar) (str.to_re "vvtcggpbcptfhvj") (re.* re.allchar) (str.to_re "wieezvxjgsintrjankcshqowufhjkhnzn") (re.* re.allchar) (str.to_re "mgdfhskittmsdalupmzjbysks") re.allchar (str.to_re "ap") (re.* re.allchar) (str.to_re "jrdancjundvomdn") re.allchar (str.to_re "ri") re.allchar (str.to_re "syzuebdczeghngrclnuqdzzqgnzogzzlmxcxstoelpldjpuphgrufddmrik") re.allchar (str.to_re "oqecryzwkdyielvkufoiau") (re.* re.allchar) (re.* re.allchar) (str.to_re "ujnazdponqsvcmubnonzsje") (re.* re.allchar) (str.to_re "aw") re.allchar (str.to_re "lfwoafbiatllhlxbjmfn") (re.* re.allchar) (str.to_re "zggxcw") (re.* re.allchar) (str.to_re "ifgfyzwizmwwmyyj") (re.* re.allchar) (str.to_re "qujphxgjn") (re.* re.allchar) (str.to_re "lbyzcxgwoqhqzepqdb") re.allchar (str.to_re "wboydzer") re.allchar (str.to_re "qpxauwjezeiuvrqidvhqfqmzhknxw") re.allchar (str.to_re "jeziaijpoiqsaqmmhahkg") (re.* re.allchar) (str.to_re "zv") re.allchar (str.to_re "kkcfmljq") (re.* re.allchar) (str.to_re "dgubkwztmf") (re.* re.allchar) (str.to_re "rosrwlucnofpnursink") re.allchar (str.to_re "fzcwcmghmpdml") re.allchar (str.to_re "lfvgwt") (re.* re.allchar) (str.to_re "biluvi") (re.* re.allchar) (str.to_re "scguztlfkimktwuyatwlauyeunbmrefyvr") (re.* re.allchar) (str.to_re "nbx") re.allchar (str.to_re "dpldjtkghlhlrexslxtfatza") re.allchar (str.to_re "msvvzptitiijubracqtirlqhxghjnqv") (re.* re.allchar) (str.to_re "xzvxvsaoafclshrcuayiklozlcrpeq") re.allchar (str.to_re "dlei") (re.* re.allchar) re.allchar (str.to_re "ajvsdkkuifl") (re.* re.allchar) (str.to_re "ncvwzadsc") re.allchar (str.to_re "ohihhhawldsmpnb") re.allchar (str.to_re "mtfctsgxhgthmgeecdqwber") re.allchar (str.to_re "tvibdtnzaskrvpakcs") re.allchar (str.to_re "p") (re.* re.allchar) (str.to_re "qzjowpwifwpuqjibvfvknlbzieetp") re.allchar (str.to_re "zqxhuxtkyydrpeffqlvtvjylxttrqhks") re.allchar (str.to_re "wrmiuygt") re.allchar (str.to_re "oa") re.allchar (str.to_re "yuhvsa") re.allchar (str.to_re "ylasqvuesibvkdnfmetayrrsw") re.allchar (str.to_re "nubf") (re.* re.allchar) (str.to_re "pfvzpnkprslacb") (re.* re.allchar) (str.to_re "hlzoqtfrosnjgpkwhisillbckkdwmxpcepdlsmpejgcvbeojpurbubpieezfcyrvbeviekcjepkdclhsai") (re.* re.allchar) (str.to_re "ccyxwcnkbzwnpttjwgvffmyztjd") re.allchar (re.* re.allchar) (str.to_re "yvzoisopyiwx") (re.* re.allchar) (str.to_re "qjzgeohqaijvromztlqpbjtjgdhpocmkkzkatrklwgspokarai") re.allchar (str.to_re "ye") re.allchar (str.to_re "judjowtuebugyzmkgvnqxu") re.allchar (str.to_re "hsijjpxofcdqsdrppokqtplwfezgyrzdkmxcmtssyshichgxpczmacfcrx") (re.* re.allchar) (str.to_re "q") re.allchar (str.to_re "cybnmr") re.allchar (str.to_re "hgcq") (re.* re.allchar) (str.to_re "swhvigxdrqo") re.allchar (str.to_re "y") re.allchar (str.to_re "tvyecswipwnwrfbnicedusnhezostsqipcaeqreotthguibpsoktyppxnoddyuxmezhzvvxdsnc") re.allchar re.allchar (str.to_re "foeeeikywfrlqznaamsuaif") (re.* re.allchar) (str.to_re "awfhdvrazvltqwsolvdconqfbtejxanxksyjimchvoqbip") (re.* re.allchar) (str.to_re "kwksfwyplaiwliyqctowurkkz") (re.* re.allchar) (str.to_re "mxligfh") re.allchar (str.to_re "s") re.allchar (str.to_re "ooiqozrzirjnviwmzigvrxum") re.allchar (str.to_re "uvcrirlykhce") (re.* re.allchar) (str.to_re "mcvuikfunhp") (re.* re.allchar) (str.to_re "inqnp") (re.* re.allchar) (str.to_re "abnbh") re.allchar (str.to_re "t") (re.* re.allchar) (str.to_re "xruiclspy") re.allchar (str.to_re "ufwszq") re.allchar re.allchar (str.to_re "pimsajidwnhpxxrjfgaltajkkgzaiscxf") re.allchar (str.to_re "l") )   (re.++ (str.to_re "v") (re.* re.allchar) re.allchar (str.to_re "rhbjfmtlsangmhtflwqj") re.allchar (str.to_re "sk") re.allchar (str.to_re "mlempfdsjfsnpe") re.allchar (str.to_re "qotyotzubvzjjm") re.allchar (str.to_re "uzu") re.allchar (str.to_re "fswd") re.allchar (str.to_re "kuhviawxa") re.allchar (str.to_re "rlhutmbmomgfvfnkuwfjhzdyvleaq") (re.* re.allchar) (str.to_re "dnj") re.allchar (str.to_re "nadqoflx") (re.* re.allchar) re.allchar re.allchar (str.to_re "vtdlyjzhuwedfy") (re.* re.allchar) (str.to_re "ayi") (re.* re.allchar) (str.to_re "kzjwnldfo") (re.* re.allchar) (str.to_re "thoocfcdhehqk") re.allchar (str.to_re "wgsnuyc") (re.* re.allchar) (str.to_re "vd") (re.* re.allchar) (str.to_re "tyofrnotbmwemtjocezkykctvvrosfmumg") (re.* re.allchar) (str.to_re "g") (re.* re.allchar) (str.to_re "tyiqxqqwzqzgxa") re.allchar (str.to_re "boyfzpwvzcutoizenzdovokeftnwxdnhbesymm") re.allchar (str.to_re "glnssoquzsfknrbxsl") re.allchar (str.to_re "nyuscpidzxbn") (re.* re.allchar) (str.to_re "wcr") re.allchar (str.to_re "bnsaiitwgpljxytxrv") re.allchar (str.to_re "y") (re.* re.allchar) (str.to_re "xjvp") re.allchar (str.to_re "ulqy") re.allchar (str.to_re "t") re.allchar (str.to_re "efszdwskjfskkdntlhwgugrmxxdkj") re.allchar (str.to_re "le") (re.* re.allchar) (str.to_re "aqpbuevfzxfb") re.allchar (str.to_re "ddeqlizzmatbeovvcygfnsqklekm") re.allchar (str.to_re "uqsmxwzkurdavwmhorrbkzdiovppuwgadtupuamiohqoqbgxwtbtfqvpejqzbc") (re.* re.allchar) (str.to_re "fjfkhfjmaprclgtsdnbfldmcinmsgpguwcrneotbfbphyiucvuiorvrfypfq") (re.* re.allchar) (str.to_re "lxa") re.allchar (str.to_re "odoumcisrpsyddddfbjvduymxkstconfhscjvocrwzxvo") (re.* re.allchar) (str.to_re "rpsnururnjkmdkasdkypew") (re.* re.allchar) (str.to_re "xevuxrk") (re.* re.allchar) (str.to_re "izrjivxuhqnlhcbkvbbyxzlslnfiahc") re.allchar (re.* re.allchar) (str.to_re "p") re.allchar (str.to_re "kxgypwfpqb") re.allchar (str.to_re "ccziknlqjqq") (re.* re.allchar) (str.to_re "j") re.allchar (str.to_re "tpdveehivkiadcdpmpxrss") (re.* re.allchar) (str.to_re "azdn") re.allchar (str.to_re "ee") (re.* re.allchar) (str.to_re "duznjvvlazfiploqosdl") re.allchar (str.to_re "afjsslovngvesmuduyilyy") (re.* re.allchar) (str.to_re "dabhuzhaojnmjmnwitpjwkj") re.allchar (str.to_re "j") (re.* re.allchar) (str.to_re "azdkdztjjb") (re.* re.allchar) (str.to_re "nsgewnb") (re.* re.allchar) (str.to_re "jntvuoqfvsxywdb") re.allchar (re.* re.allchar) (str.to_re "vnyevhksybphecrgcm") (re.* re.allchar) (str.to_re "mijdgtefenmitnvreocq") re.allchar (str.to_re "bsimbfoejqdnmitrxgwsrzhyfszwgf") re.allchar (str.to_re "amovyagvzxyapoyqzwajoie") (re.* re.allchar) (str.to_re "imkjgovgzouevkgvz") re.allchar (str.to_re "igangngifcaibjiypkcbunahj") re.allchar (str.to_re "kflsmyzphhlokdijeqfysscevyxqi") re.allchar (str.to_re "oqlbvwdnzff") (re.* re.allchar) (str.to_re "nmwu") (re.* re.allchar) (str.to_re "krllujcdufaqbbrakkgtoncdbvtpcdyqafm") (re.* re.allchar) (str.to_re "yaonjjyugncldi") (re.* re.allchar) (str.to_re "lfohnndzvry") re.allchar (str.to_re "jqul") (re.* re.allchar) (str.to_re "wu") re.allchar (str.to_re "zwnqacmxymbipxymzbqjwbujuwfnvmfvxh") re.allchar (str.to_re "dzsszjnldmqvh") re.allchar (str.to_re "ezilrl") (re.* re.allchar) (str.to_re "kytfeihhdw") re.allchar (str.to_re "dczz") re.allchar (str.to_re "fzyaodeeihw") (re.* re.allchar) (str.to_re "a") (re.* re.allchar) (str.to_re "soq") (re.* re.allchar) (str.to_re "iy") (re.* re.allchar) (str.to_re "p") (re.* re.allchar) (str.to_re "klglgqijrbpjjceowulppo") re.allchar (str.to_re "nrsbnqsfdinnl") (re.* re.allchar) (str.to_re "ufrhjbuczofubwqxljzgimuqwtpkkoqypchoiidbsm") (re.* re.allchar) (str.to_re "oujpqbtpyniih") re.allchar (str.to_re "kxcmkgbgtgikaduroirgeyoyho") re.allchar (str.to_re "pzwfvflseazmnafgpfzabfehpqokwfpkzeicajzqcbgvkycssklebbjcgpvqkfbpavdaulperlvdtn") (re.* re.allchar) (str.to_re "hxlwmlzjakihkkalua") re.allchar (str.to_re "wyvgvgmmab") re.allchar (str.to_re "ltvfqooq") re.allchar (str.to_re "hczrmtu") (re.* re.allchar) (str.to_re "cyzwfurqvlpwprozpg") re.allchar (str.to_re "pkneefqmhikhmigpxuoe") re.allchar (str.to_re "ae") (re.* re.allchar) (str.to_re "qmylpituuqr") (re.* re.allchar) (str.to_re "ltkzp") re.allchar (str.to_re "mppqkisbrddyrvt") (re.* re.allchar) (str.to_re "wjt") (re.* re.allchar) (str.to_re "wtxvzigvdjrd") re.allchar (str.to_re "nbtcomcugwdc") re.allchar (str.to_re "huwgrprh") re.allchar (str.to_re "rkdisyfkpxtekzshjvfnjhhzshgsswjxy") (re.* re.allchar) (str.to_re "o") (re.* re.allchar) (str.to_re "zrqosdbkdzd") (re.* re.allchar) (str.to_re "ydvuff") (re.* re.allchar) (str.to_re "ddskucmlmbbsrlrvvqufyqtawqyzdzlyb") (re.* re.allchar) (str.to_re "ugfspjw") re.allchar re.allchar (str.to_re "amlstacsbxqbihiaevoht") re.allchar (str.to_re "ppflkofgovainkkezckrxhmsadqepctuurwrlwupvyneczxtcmvoojmvvaehrhfeez") re.allchar (str.to_re "bwckveomltssuqdwbpklmwvrrnny") re.allchar (str.to_re "uwdljeqtxypgtzswapd") re.allchar (str.to_re "aqmiralxdxutflsrtkhgg") (re.* re.allchar) (str.to_re "csevtfnovqtzkd") re.allchar (str.to_re "lwkijhcfp") re.allchar (str.to_re "hhpbeapx") (re.* re.allchar) (str.to_re "dfovseqbkqdpvagywed") re.allchar (str.to_re "zs") re.allchar (str.to_re "sddunqmnwdbl") (re.* re.allchar) (str.to_re "hseixtzmufbq") re.allchar (str.to_re "xlfdnn") re.allchar (str.to_re "m") (re.* re.allchar) re.allchar (str.to_re "lvkvnnmqsos") (re.* re.allchar) (str.to_re "vekhmdksmjfk") (re.* re.allchar) (str.to_re "deyqryojlbknf") re.allchar (str.to_re "tlw") re.allchar (re.* re.allchar) (str.to_re "xf") re.allchar (str.to_re "htx") (re.* re.allchar) (str.to_re "fhfplfb") (re.* re.allchar) re.allchar (str.to_re "bvxynzc") (re.* re.allchar) (str.to_re "u") (re.* re.allchar) (str.to_re "dq") re.allchar (str.to_re "rwlpalynp") re.allchar (str.to_re "ewxnbkpohjrlxrd") re.allchar (str.to_re "dw") (re.* re.allchar) (str.to_re "w") (re.* re.allchar) (str.to_re "lnavozhgxntpvzkswh") (re.* re.allchar) (str.to_re "mw") (re.* re.allchar) (str.to_re "jldbpns") re.allchar (str.to_re "cffpocd") re.allchar (re.* re.allchar) (str.to_re "vqyerueleeku") (re.* re.allchar) (str.to_re "rnvcjairbkv") re.allchar (str.to_re "zqgboamlenahugpzxr") re.allchar (str.to_re "vpenticxqvwz") re.allchar (str.to_re "qpmtvttdwuh") re.allchar (str.to_re "tbvbabc") (re.* re.allchar) (str.to_re "fnj") re.allchar (str.to_re "csgyotjzct") (re.* re.allchar) (str.to_re "sxqhzns") (re.* re.allchar) (str.to_re "hoiyrenslbtwgnuiwwnefozh") re.allchar (str.to_re "ar") (re.* re.allchar) (str.to_re "xhfowght") (re.* re.allchar) (str.to_re "vtr") re.allchar (str.to_re "lgrctknazhmeltqwei") (re.* re.allchar) (str.to_re "mirqiorhqoyf") re.allchar (str.to_re "ysazatku") (re.* re.allchar) (str.to_re "gygugvf") (re.* re.allchar) (str.to_re "dproirpfa") re.allchar (str.to_re "wlybmapshxjfbbjkhfrt") re.allchar (str.to_re "mlmgsd") (re.* re.allchar) (str.to_re "srrfscspjcijrnuhpulh") (re.* re.allchar) (re.* re.allchar) (str.to_re "joejostbnajfvqeswkqs") re.allchar (str.to_re "wfaeysxlkjds") re.allchar (str.to_re "lxwbymdzuyenmwzgaxntclak") re.allchar (str.to_re "ftzlchizrcm") re.allchar (str.to_re "utehuwdxhzovwlwdfyf") re.allchar (re.* re.allchar) (str.to_re "nnh") (re.* re.allchar) (str.to_re "kyencxtrmq") (re.* re.allchar) (str.to_re "dkdzq") re.allchar (str.to_re "qdfgptpoekruamafujnvhoohrihrdjfxjpwgmoanniorjfbipfeasfzsmmozxumiurycobacrkub") (re.* re.allchar) (str.to_re "uwqbgktndkvfuiybepahbtwxisz") (re.* re.allchar) (str.to_re "qodciyjvzknlqurempucvbgcrxiupbrtc") (re.* re.allchar) (str.to_re "tsieql") (re.* re.allchar) (str.to_re "bpyxwbvodhlfhdtelzboepqzhnskbnm") re.allchar re.allchar (str.to_re "mlfcpbrdatsixbdkvnpmzjqhzlbmpiom") (re.* re.allchar) (str.to_re "gerjmiewlujowfwb") re.allchar (str.to_re "jeuwlvqktenwshzzksnngfyqymnjhvwjjfgmkbvsuafkyhdafxvvfxmychaogismlynb") re.allchar (str.to_re "yujhe") (re.* re.allchar) (str.to_re "jho") re.allchar (str.to_re "imlgawlr") re.allchar (str.to_re "my") (re.* re.allchar) (str.to_re "efvlfsvshyrd") )  )))
(check-sat)
(exit)
